0 0
1 2
2 1
3 2
4 4
5 2
6 2
7 1
8 0
9 1
10 1
11 2
12 0
13 1
14 1
15 1
16 3
17 1
18 1
19 0
20 1
21 1
22 1
23 1
24 2
25 0
26 2
27 0
28 2
29 5
30 0
31 0
32 0
33 1
34 0
35 0
36 0
37 4
38 1
39 1
40 2
41 1
42 2
43 2
44 0
45 0
46 0
47 1
48 2
49 0
50 0
51 1
52 1
53 2
54 2
55 1
56 4
57 0
58 3
59 5
60 2
61 2
62 2
63 1
64 1
65 3
66 2
67 0
68 1
69 4
70 1
71 1
72 0
73 1
74 1
75 1
76 0
77 4
78 1
79 1
80 1
81 2
82 1
83 4
84 0
85 4
86 0
87 1
88 0
89 2
90 1
91 3
92 3
93 3
94 1
95 2
96 1
97 4
98 0
99 1
